20
30.15
0 19 59.15 34.56
1 18 60.93 25.19
2 17 57.87 25.32
3 16 47.56 18.73
4 15 45.64 18.69
5 14 60.46 34.02
6 13 51.47 18.74
7 12 57.43 13.59
8 11 64.76 29.98
9 10 50.49 20.18
10 9 49.94 15.56
11 8 46.74 10.42
12 7 70.36 37.35
13 6 44.03 15.35
14 5 58.38 32.31
15 4 47.36 46.16
16 3 37.98 12.81
17 2 87.08 50.89
18 1 15.43 0.09
